c FILE: hole9.cnf
c SOURCE: file mkhole.ml of Sylvain.Boulme@imag.fr
c DESCRIPTION: placing each of 10 pigeons in 9 distinct holes (one pigeon by hole)
c NOTE: Not Satisfiable
p cnf 90 415
90 89 88 87 86 85 84 83 82 0
81 80 79 78 77 76 75 74 73 0
72 71 70 69 68 67 66 65 64 0
63 62 61 60 59 58 57 56 55 0
54 53 52 51 50 49 48 47 46 0
45 44 43 42 41 40 39 38 37 0
36 35 34 33 32 31 30 29 28 0
27 26 25 24 23 22 21 20 19 0
18 17 16 15 14 13 12 11 10 0
9 8 7 6 5 4 3 2 1 0
-90 -81 0
-90 -72 0
-90 -63 0
-90 -54 0
-90 -45 0
-90 -36 0
-90 -27 0
-90 -18 0
-90 -9 0
-81 -72 0
-81 -63 0
-81 -54 0
-81 -45 0
-81 -36 0
-81 -27 0
-81 -18 0
-81 -9 0
-72 -63 0
-72 -54 0
-72 -45 0
-72 -36 0
-72 -27 0
-72 -18 0
-72 -9 0
-63 -54 0
-63 -45 0
-63 -36 0
-63 -27 0
-63 -18 0
-63 -9 0
-54 -45 0
-54 -36 0
-54 -27 0
-54 -18 0
-54 -9 0
-45 -36 0
-45 -27 0
-45 -18 0
-45 -9 0
-36 -27 0
-36 -18 0
-36 -9 0
-27 -18 0
-27 -9 0
-18 -9 0
-89 -80 0
-89 -71 0
-89 -62 0
-89 -53 0
-89 -44 0
-89 -35 0
-89 -26 0
-89 -17 0
-89 -8 0
-80 -71 0
-80 -62 0
-80 -53 0
-80 -44 0
-80 -35 0
-80 -26 0
-80 -17 0
-80 -8 0
-71 -62 0
-71 -53 0
-71 -44 0
-71 -35 0
-71 -26 0
-71 -17 0
-71 -8 0
-62 -53 0
-62 -44 0
-62 -35 0
-62 -26 0
-62 -17 0
-62 -8 0
-53 -44 0
-53 -35 0
-53 -26 0
-53 -17 0
-53 -8 0
-44 -35 0
-44 -26 0
-44 -17 0
-44 -8 0
-35 -26 0
-35 -17 0
-35 -8 0
-26 -17 0
-26 -8 0
-17 -8 0
-88 -79 0
-88 -70 0
-88 -61 0
-88 -52 0
-88 -43 0
-88 -34 0
-88 -25 0
-88 -16 0
-88 -7 0
-79 -70 0
-79 -61 0
-79 -52 0
-79 -43 0
-79 -34 0
-79 -25 0
-79 -16 0
-79 -7 0
-70 -61 0
-70 -52 0
-70 -43 0
-70 -34 0
-70 -25 0
-70 -16 0
-70 -7 0
-61 -52 0
-61 -43 0
-61 -34 0
-61 -25 0
-61 -16 0
-61 -7 0
-52 -43 0
-52 -34 0
-52 -25 0
-52 -16 0
-52 -7 0
-43 -34 0
-43 -25 0
-43 -16 0
-43 -7 0
-34 -25 0
-34 -16 0
-34 -7 0
-25 -16 0
-25 -7 0
-16 -7 0
-87 -78 0
-87 -69 0
-87 -60 0
-87 -51 0
-87 -42 0
-87 -33 0
-87 -24 0
-87 -15 0
-87 -6 0
-78 -69 0
-78 -60 0
-78 -51 0
-78 -42 0
-78 -33 0
-78 -24 0
-78 -15 0
-78 -6 0
-69 -60 0
-69 -51 0
-69 -42 0
-69 -33 0
-69 -24 0
-69 -15 0
-69 -6 0
-60 -51 0
-60 -42 0
-60 -33 0
-60 -24 0
-60 -15 0
-60 -6 0
-51 -42 0
-51 -33 0
-51 -24 0
-51 -15 0
-51 -6 0
-42 -33 0
-42 -24 0
-42 -15 0
-42 -6 0
-33 -24 0
-33 -15 0
-33 -6 0
-24 -15 0
-24 -6 0
-15 -6 0
-86 -77 0
-86 -68 0
-86 -59 0
-86 -50 0
-86 -41 0
-86 -32 0
-86 -23 0
-86 -14 0
-86 -5 0
-77 -68 0
-77 -59 0
-77 -50 0
-77 -41 0
-77 -32 0
-77 -23 0
-77 -14 0
-77 -5 0
-68 -59 0
-68 -50 0
-68 -41 0
-68 -32 0
-68 -23 0
-68 -14 0
-68 -5 0
-59 -50 0
-59 -41 0
-59 -32 0
-59 -23 0
-59 -14 0
-59 -5 0
-50 -41 0
-50 -32 0
-50 -23 0
-50 -14 0
-50 -5 0
-41 -32 0
-41 -23 0
-41 -14 0
-41 -5 0
-32 -23 0
-32 -14 0
-32 -5 0
-23 -14 0
-23 -5 0
-14 -5 0
-85 -76 0
-85 -67 0
-85 -58 0
-85 -49 0
-85 -40 0
-85 -31 0
-85 -22 0
-85 -13 0
-85 -4 0
-76 -67 0
-76 -58 0
-76 -49 0
-76 -40 0
-76 -31 0
-76 -22 0
-76 -13 0
-76 -4 0
-67 -58 0
-67 -49 0
-67 -40 0
-67 -31 0
-67 -22 0
-67 -13 0
-67 -4 0
-58 -49 0
-58 -40 0
-58 -31 0
-58 -22 0
-58 -13 0
-58 -4 0
-49 -40 0
-49 -31 0
-49 -22 0
-49 -13 0
-49 -4 0
-40 -31 0
-40 -22 0
-40 -13 0
-40 -4 0
-31 -22 0
-31 -13 0
-31 -4 0
-22 -13 0
-22 -4 0
-13 -4 0
-84 -75 0
-84 -66 0
-84 -57 0
-84 -48 0
-84 -39 0
-84 -30 0
-84 -21 0
-84 -12 0
-84 -3 0
-75 -66 0
-75 -57 0
-75 -48 0
-75 -39 0
-75 -30 0
-75 -21 0
-75 -12 0
-75 -3 0
-66 -57 0
-66 -48 0
-66 -39 0
-66 -30 0
-66 -21 0
-66 -12 0
-66 -3 0
-57 -48 0
-57 -39 0
-57 -30 0
-57 -21 0
-57 -12 0
-57 -3 0
-48 -39 0
-48 -30 0
-48 -21 0
-48 -12 0
-48 -3 0
-39 -30 0
-39 -21 0
-39 -12 0
-39 -3 0
-30 -21 0
-30 -12 0
-30 -3 0
-21 -12 0
-21 -3 0
-12 -3 0
-83 -74 0
-83 -65 0
-83 -56 0
-83 -47 0
-83 -38 0
-83 -29 0
-83 -20 0
-83 -11 0
-83 -2 0
-74 -65 0
-74 -56 0
-74 -47 0
-74 -38 0
-74 -29 0
-74 -20 0
-74 -11 0
-74 -2 0
-65 -56 0
-65 -47 0
-65 -38 0
-65 -29 0
-65 -20 0
-65 -11 0
-65 -2 0
-56 -47 0
-56 -38 0
-56 -29 0
-56 -20 0
-56 -11 0
-56 -2 0
-47 -38 0
-47 -29 0
-47 -20 0
-47 -11 0
-47 -2 0
-38 -29 0
-38 -20 0
-38 -11 0
-38 -2 0
-29 -20 0
-29 -11 0
-29 -2 0
-20 -11 0
-20 -2 0
-11 -2 0
-82 -73 0
-82 -64 0
-82 -55 0
-82 -46 0
-82 -37 0
-82 -28 0
-82 -19 0
-82 -10 0
-82 -1 0
-73 -64 0
-73 -55 0
-73 -46 0
-73 -37 0
-73 -28 0
-73 -19 0
-73 -10 0
-73 -1 0
-64 -55 0
-64 -46 0
-64 -37 0
-64 -28 0
-64 -19 0
-64 -10 0
-64 -1 0
-55 -46 0
-55 -37 0
-55 -28 0
-55 -19 0
-55 -10 0
-55 -1 0
-46 -37 0
-46 -28 0
-46 -19 0
-46 -10 0
-46 -1 0
-37 -28 0
-37 -19 0
-37 -10 0
-37 -1 0
-28 -19 0
-28 -10 0
-28 -1 0
-19 -10 0
-19 -1 0
-10 -1 0
